(declare-const res_init Int)
(declare-const ytmp_init Int)
(declare-const x_init Int)
(declare-const y_init Int)
(declare-const c_0 Int)
(declare-const c_1 Int)
(declare-const c_2 Int)
(declare-const c_3 Int)
(declare-const c_4 Int)
(declare-const c_5 Int)
(declare-const c_6 Int)
(declare-const c_7 Int)
(declare-const c_8 Int)
(declare-const c_9 Int)
(declare-const c_10 Int)
(declare-const c_11 Int)
(declare-const c_12 Int)
(declare-const c_13 Int)
(declare-const c_14 Int)
(declare-const c_15 Int)
(declare-const c_16 Int)
(declare-const c_17 Int)
(declare-const c_18 Int)
(declare-const c_19 Int)
(declare-const c_20 Int)
(declare-const c_21 Int)
(declare-const c_22 Int)
(declare-const c_23 Int)
(declare-const c_24 Int)
(declare-const c_25 Int)
(declare-const c_26 Int)
(declare-const c_27 Int)
(declare-const c_28 Int)
(declare-const c_29 Int)
(declare-const c_30 Int)
(declare-const c_31 Int)
(declare-const c_32 Int)
(declare-const c_33 Int)
(declare-const c_34 Int)
(declare-const c_35 Int)
(declare-const c_36 Int)
(declare-const c_37 Int)
(declare-const c_38 Int)
(declare-const c_39 Int)
(declare-const c_40 Int)
(declare-const c_41 Int)
(declare-const c_42 Int)
(declare-const c_43 Int)
(declare-const c_44 Int)
(assert (< c_0 0))
(assert (and (>= (+ (* 1 c_1 ) (* (- 1) res_init ) ) 0) (>= (+ (* (- 1) c_1 ) (* 1 res_init ) ) 0) (>= (+ (* 1 c_2 ) (* (- 1) ytmp_init ) ) 0) (>= (+ (* (- 1) c_2 ) (* 1 ytmp_init ) ) 0) (>= (+ (* 1 c_3 ) (* (- 1) x_init ) ) 0) (>= (+ (* (- 1) c_3 ) (* 1 x_init ) ) 0) (>= (+ (* 1 c_4 ) (* (- 1) y_init ) ) 0) (>= (+ (* (- 1) c_4 ) (* 1 y_init ) ) 0) ))
(assert (forall ((res Real) (ytmp Real) (x Real) (y Real) ) (=> (and (>= (+ (* (- 1) 1) (* (- 1) c_25 ) (* (- 1) c_27 x ) (* (- 1) c_28 y ) (* (- 1) c_29 ytmp ) ) 0) (>= (+ (* 1 c_1 ) (* (- 1) res ) ) 0) (>= (+ (* (- 1) c_1 ) (* 1 res ) ) 0) (>= (+ (* 1 c_2 ) (* (- 1) ytmp ) ) 0) (>= (+ (* (- 1) c_2 ) (* 1 ytmp ) ) 0) (>= (+ (* 1 c_3 ) (* (- 1) x ) ) 0) (>= (+ (* (- 1) c_3 ) (* 1 x ) ) 0) (>= (+ (* 1 c_4 ) (* (- 1) y ) ) 0) (>= (+ (* (- 1) c_4 ) (* 1 y ) ) 0) ) (>= (+ (* 1 c_35 ) (* 1 c_37 x ) (* 1 c_38 y ) (* 1 c_39 ytmp ) ) 0) )))
(assert (forall ((res Real) (ytmp Real) (x Real) (y Real) ) (=> (and (>= (+ (* (- 1) 1) (* (- 1) c_25 ) (* (- 1) c_27 x ) (* (- 1) c_28 y ) (* (- 1) c_29 ytmp ) ) 0) (>= (+ (* 1 c_1 ) (* (- 1) res ) ) 0) (>= (+ (* (- 1) c_1 ) (* 1 res ) ) 0) (>= (+ (* 1 c_2 ) (* (- 1) ytmp ) ) 0) (>= (+ (* (- 1) c_2 ) (* 1 ytmp ) ) 0) (>= (+ (* 1 c_3 ) (* (- 1) x ) ) 0) (>= (+ (* (- 1) c_3 ) (* 1 x ) ) 0) (>= (+ (* 1 c_4 ) (* (- 1) y ) ) 0) (>= (+ (* (- 1) c_4 ) (* 1 y ) ) 0) ) (>= (+ (* 1 c_40 ) (* 1 c_42 x ) (* 1 c_43 y ) (* 1 c_44 ytmp ) ) 0) )))
(assert (forall ((res Real) (ytmp Real) (x Real) (y Real) ) (=> (and (>= (+ (* (- 1) 1) (* (- 1) c_30 ) (* (- 1) c_32 x ) (* (- 1) c_33 y ) (* (- 1) c_34 ytmp ) ) 0) (>= (+ (* 1 c_1 ) (* (- 1) res ) ) 0) (>= (+ (* (- 1) c_1 ) (* 1 res ) ) 0) (>= (+ (* 1 c_2 ) (* (- 1) ytmp ) ) 0) (>= (+ (* (- 1) c_2 ) (* 1 ytmp ) ) 0) (>= (+ (* 1 c_3 ) (* (- 1) x ) ) 0) (>= (+ (* (- 1) c_3 ) (* 1 x ) ) 0) (>= (+ (* 1 c_4 ) (* (- 1) y ) ) 0) (>= (+ (* (- 1) c_4 ) (* 1 y ) ) 0) ) (>= (+ (* 1 c_35 ) (* 1 c_37 x ) (* 1 c_38 y ) (* 1 c_39 ytmp ) ) 0) )))
(assert (forall ((res Real) (ytmp Real) (x Real) (y Real) ) (=> (and (>= (+ (* (- 1) 1) (* (- 1) c_30 ) (* (- 1) c_32 x ) (* (- 1) c_33 y ) (* (- 1) c_34 ytmp ) ) 0) (>= (+ (* 1 c_1 ) (* (- 1) res ) ) 0) (>= (+ (* (- 1) c_1 ) (* 1 res ) ) 0) (>= (+ (* 1 c_2 ) (* (- 1) ytmp ) ) 0) (>= (+ (* (- 1) c_2 ) (* 1 ytmp ) ) 0) (>= (+ (* 1 c_3 ) (* (- 1) x ) ) 0) (>= (+ (* (- 1) c_3 ) (* 1 x ) ) 0) (>= (+ (* 1 c_4 ) (* (- 1) y ) ) 0) (>= (+ (* (- 1) c_4 ) (* 1 y ) ) 0) ) (>= (+ (* 1 c_40 ) (* 1 c_42 x ) (* 1 c_43 y ) (* 1 c_44 ytmp ) ) 0) )))
(assert (forall ((res Real) (ytmp Real) (x Real) (y Real) ) (=> (and (>= (+ (* (- 1) 1) (* (- 1) c_5 ) (* (- 1) c_6 res ) (* 1 c_7 ) (* (- 1) c_7 x ) (* (- 1) c_8 y ) (* 1 c_9 ) (* (- 1) c_9 ytmp ) ) 0) (>= (+ (* (- 1) 1) (* 1 ytmp ) ) 0) (>= (+ (* (- 1) 1) (* (- 1) ytmp ) ) 0) (>= (+ (* 1 c_5 ) (* 1 c_6 res ) (* 1 c_7 x ) (* 1 c_8 y ) (* 1 c_9 ytmp ) ) 0) (>= (+ (* 1 c_10 ) (* 1 c_11 res ) (* 1 c_12 x ) (* 1 c_13 y ) (* 1 c_14 ytmp ) ) 0) ) (>= (+ (* 1 c_15 ) (* 1 c_16 res ) (* (- 1) c_17 ) (* 1 c_17 x ) (* 1 c_18 y ) (* (- 1) c_19 ) (* 1 c_19 ytmp ) ) 0) )))
(assert (forall ((res Real) (ytmp Real) (x Real) (y Real) ) (=> (and (>= (+ (* (- 1) 1) (* (- 1) c_5 ) (* (- 1) c_6 res ) (* 1 c_7 ) (* (- 1) c_7 x ) (* (- 1) c_8 y ) (* 1 c_9 ) (* (- 1) c_9 ytmp ) ) 0) (>= (+ (* (- 1) 1) (* 1 ytmp ) ) 0) (>= (+ (* (- 1) 1) (* (- 1) ytmp ) ) 0) (>= (+ (* 1 c_5 ) (* 1 c_6 res ) (* 1 c_7 x ) (* 1 c_8 y ) (* 1 c_9 ytmp ) ) 0) (>= (+ (* 1 c_10 ) (* 1 c_11 res ) (* 1 c_12 x ) (* 1 c_13 y ) (* 1 c_14 ytmp ) ) 0) ) (>= (+ (* 1 c_20 ) (* 1 c_21 res ) (* (- 1) c_22 ) (* 1 c_22 x ) (* 1 c_23 y ) (* (- 1) c_24 ) (* 1 c_24 ytmp ) ) 0) )))
(assert (forall ((res Real) (ytmp Real) (x Real) (y Real) ) (=> (and (>= (+ (* (- 1) 1) (* (- 1) c_10 ) (* (- 1) c_11 res ) (* 1 c_12 ) (* (- 1) c_12 x ) (* (- 1) c_13 y ) (* 1 c_14 ) (* (- 1) c_14 ytmp ) ) 0) (>= (+ (* (- 1) 1) (* 1 ytmp ) ) 0) (>= (+ (* (- 1) 1) (* (- 1) ytmp ) ) 0) (>= (+ (* 1 c_5 ) (* 1 c_6 res ) (* 1 c_7 x ) (* 1 c_8 y ) (* 1 c_9 ytmp ) ) 0) (>= (+ (* 1 c_10 ) (* 1 c_11 res ) (* 1 c_12 x ) (* 1 c_13 y ) (* 1 c_14 ytmp ) ) 0) ) (>= (+ (* 1 c_15 ) (* 1 c_16 res ) (* (- 1) c_17 ) (* 1 c_17 x ) (* 1 c_18 y ) (* (- 1) c_19 ) (* 1 c_19 ytmp ) ) 0) )))
(assert (forall ((res Real) (ytmp Real) (x Real) (y Real) ) (=> (and (>= (+ (* (- 1) 1) (* (- 1) c_10 ) (* (- 1) c_11 res ) (* 1 c_12 ) (* (- 1) c_12 x ) (* (- 1) c_13 y ) (* 1 c_14 ) (* (- 1) c_14 ytmp ) ) 0) (>= (+ (* (- 1) 1) (* 1 ytmp ) ) 0) (>= (+ (* (- 1) 1) (* (- 1) ytmp ) ) 0) (>= (+ (* 1 c_5 ) (* 1 c_6 res ) (* 1 c_7 x ) (* 1 c_8 y ) (* 1 c_9 ytmp ) ) 0) (>= (+ (* 1 c_10 ) (* 1 c_11 res ) (* 1 c_12 x ) (* 1 c_13 y ) (* 1 c_14 ytmp ) ) 0) ) (>= (+ (* 1 c_20 ) (* 1 c_21 res ) (* (- 1) c_22 ) (* 1 c_22 x ) (* 1 c_23 y ) (* (- 1) c_24 ) (* 1 c_24 ytmp ) ) 0) )))
(assert (forall ((res Real) (ytmp Real) (x Real) (y Real) ) (=> (and (>= (+ (* (- 1) 1) (* (- 1) c_5 ) (* (- 1) c_6 res ) (* 1 c_7 ) (* (- 1) c_7 x ) (* (- 1) c_8 y ) (* 1 c_9 ) (* (- 1) c_9 ytmp ) ) 0) (>= (+ (* (- 1) 1) (* 1 ytmp ) ) 0) (>= (+ (* (- 1) 1) (* (- 1) ytmp ) ) 0) (>= (+ (* 1 c_15 ) (* 1 c_16 res ) (* 1 c_17 x ) (* 1 c_18 y ) (* 1 c_19 ytmp ) ) 0) (>= (+ (* 1 c_20 ) (* 1 c_21 res ) (* 1 c_22 x ) (* 1 c_23 y ) (* 1 c_24 ytmp ) ) 0) ) (>= (+ (* 1 c_15 ) (* 1 c_16 res ) (* (- 1) c_17 ) (* 1 c_17 x ) (* 1 c_18 y ) (* (- 1) c_19 ) (* 1 c_19 ytmp ) ) 0) )))
(assert (forall ((res Real) (ytmp Real) (x Real) (y Real) ) (=> (and (>= (+ (* (- 1) 1) (* (- 1) c_5 ) (* (- 1) c_6 res ) (* 1 c_7 ) (* (- 1) c_7 x ) (* (- 1) c_8 y ) (* 1 c_9 ) (* (- 1) c_9 ytmp ) ) 0) (>= (+ (* (- 1) 1) (* 1 ytmp ) ) 0) (>= (+ (* (- 1) 1) (* (- 1) ytmp ) ) 0) (>= (+ (* 1 c_15 ) (* 1 c_16 res ) (* 1 c_17 x ) (* 1 c_18 y ) (* 1 c_19 ytmp ) ) 0) (>= (+ (* 1 c_20 ) (* 1 c_21 res ) (* 1 c_22 x ) (* 1 c_23 y ) (* 1 c_24 ytmp ) ) 0) ) (>= (+ (* 1 c_20 ) (* 1 c_21 res ) (* (- 1) c_22 ) (* 1 c_22 x ) (* 1 c_23 y ) (* (- 1) c_24 ) (* 1 c_24 ytmp ) ) 0) )))
(assert (forall ((res Real) (ytmp Real) (x Real) (y Real) ) (=> (and (>= (+ (* (- 1) 1) (* (- 1) c_10 ) (* (- 1) c_11 res ) (* 1 c_12 ) (* (- 1) c_12 x ) (* (- 1) c_13 y ) (* 1 c_14 ) (* (- 1) c_14 ytmp ) ) 0) (>= (+ (* (- 1) 1) (* 1 ytmp ) ) 0) (>= (+ (* (- 1) 1) (* (- 1) ytmp ) ) 0) (>= (+ (* 1 c_15 ) (* 1 c_16 res ) (* 1 c_17 x ) (* 1 c_18 y ) (* 1 c_19 ytmp ) ) 0) (>= (+ (* 1 c_20 ) (* 1 c_21 res ) (* 1 c_22 x ) (* 1 c_23 y ) (* 1 c_24 ytmp ) ) 0) ) (>= (+ (* 1 c_15 ) (* 1 c_16 res ) (* (- 1) c_17 ) (* 1 c_17 x ) (* 1 c_18 y ) (* (- 1) c_19 ) (* 1 c_19 ytmp ) ) 0) )))
(assert (forall ((res Real) (ytmp Real) (x Real) (y Real) ) (=> (and (>= (+ (* (- 1) 1) (* (- 1) c_10 ) (* (- 1) c_11 res ) (* 1 c_12 ) (* (- 1) c_12 x ) (* (- 1) c_13 y ) (* 1 c_14 ) (* (- 1) c_14 ytmp ) ) 0) (>= (+ (* (- 1) 1) (* 1 ytmp ) ) 0) (>= (+ (* (- 1) 1) (* (- 1) ytmp ) ) 0) (>= (+ (* 1 c_15 ) (* 1 c_16 res ) (* 1 c_17 x ) (* 1 c_18 y ) (* 1 c_19 ytmp ) ) 0) (>= (+ (* 1 c_20 ) (* 1 c_21 res ) (* 1 c_22 x ) (* 1 c_23 y ) (* 1 c_24 ytmp ) ) 0) ) (>= (+ (* 1 c_20 ) (* 1 c_21 res ) (* (- 1) c_22 ) (* 1 c_22 x ) (* 1 c_23 y ) (* (- 1) c_24 ) (* 1 c_24 ytmp ) ) 0) )))
(assert (forall ((res Real) (ytmp Real) (x Real) (y Real) ) (=> (and (>= (+ (* (- 1) 1) (* (- 1) c_5 ) (* (- 1) c_6 res ) (* (- 1) c_7 ) (* (- 1) c_7 x ) (* (- 1) c_8 y ) (* (- 1) c_9 ) (* (- 1) c_9 ytmp ) ) 0) (>= (* (- 1) ytmp ) 0) (>= (+ (* (- 1) 1) (* (- 1) ytmp ) ) 0) (>= (+ (* 1 c_5 ) (* 1 c_6 res ) (* 1 c_7 x ) (* 1 c_8 y ) (* 1 c_9 ytmp ) ) 0) (>= (+ (* 1 c_10 ) (* 1 c_11 res ) (* 1 c_12 x ) (* 1 c_13 y ) (* 1 c_14 ytmp ) ) 0) ) (>= (+ (* 1 c_15 ) (* 1 c_16 res ) (* 1 c_17 ) (* 1 c_17 x ) (* 1 c_18 y ) (* 1 c_19 ) (* 1 c_19 ytmp ) ) 0) )))
(assert (forall ((res Real) (ytmp Real) (x Real) (y Real) ) (=> (and (>= (+ (* (- 1) 1) (* (- 1) c_5 ) (* (- 1) c_6 res ) (* (- 1) c_7 ) (* (- 1) c_7 x ) (* (- 1) c_8 y ) (* (- 1) c_9 ) (* (- 1) c_9 ytmp ) ) 0) (>= (* (- 1) ytmp ) 0) (>= (+ (* (- 1) 1) (* (- 1) ytmp ) ) 0) (>= (+ (* 1 c_5 ) (* 1 c_6 res ) (* 1 c_7 x ) (* 1 c_8 y ) (* 1 c_9 ytmp ) ) 0) (>= (+ (* 1 c_10 ) (* 1 c_11 res ) (* 1 c_12 x ) (* 1 c_13 y ) (* 1 c_14 ytmp ) ) 0) ) (>= (+ (* 1 c_20 ) (* 1 c_21 res ) (* 1 c_22 ) (* 1 c_22 x ) (* 1 c_23 y ) (* 1 c_24 ) (* 1 c_24 ytmp ) ) 0) )))
(assert (forall ((res Real) (ytmp Real) (x Real) (y Real) ) (=> (and (>= (+ (* (- 1) 1) (* (- 1) c_10 ) (* (- 1) c_11 res ) (* (- 1) c_12 ) (* (- 1) c_12 x ) (* (- 1) c_13 y ) (* (- 1) c_14 ) (* (- 1) c_14 ytmp ) ) 0) (>= (* (- 1) ytmp ) 0) (>= (+ (* (- 1) 1) (* (- 1) ytmp ) ) 0) (>= (+ (* 1 c_5 ) (* 1 c_6 res ) (* 1 c_7 x ) (* 1 c_8 y ) (* 1 c_9 ytmp ) ) 0) (>= (+ (* 1 c_10 ) (* 1 c_11 res ) (* 1 c_12 x ) (* 1 c_13 y ) (* 1 c_14 ytmp ) ) 0) ) (>= (+ (* 1 c_15 ) (* 1 c_16 res ) (* 1 c_17 ) (* 1 c_17 x ) (* 1 c_18 y ) (* 1 c_19 ) (* 1 c_19 ytmp ) ) 0) )))
(assert (forall ((res Real) (ytmp Real) (x Real) (y Real) ) (=> (and (>= (+ (* (- 1) 1) (* (- 1) c_10 ) (* (- 1) c_11 res ) (* (- 1) c_12 ) (* (- 1) c_12 x ) (* (- 1) c_13 y ) (* (- 1) c_14 ) (* (- 1) c_14 ytmp ) ) 0) (>= (* (- 1) ytmp ) 0) (>= (+ (* (- 1) 1) (* (- 1) ytmp ) ) 0) (>= (+ (* 1 c_5 ) (* 1 c_6 res ) (* 1 c_7 x ) (* 1 c_8 y ) (* 1 c_9 ytmp ) ) 0) (>= (+ (* 1 c_10 ) (* 1 c_11 res ) (* 1 c_12 x ) (* 1 c_13 y ) (* 1 c_14 ytmp ) ) 0) ) (>= (+ (* 1 c_20 ) (* 1 c_21 res ) (* 1 c_22 ) (* 1 c_22 x ) (* 1 c_23 y ) (* 1 c_24 ) (* 1 c_24 ytmp ) ) 0) )))
(assert (forall ((res Real) (ytmp Real) (x Real) (y Real) ) (=> (and (>= (+ (* (- 1) 1) (* (- 1) c_5 ) (* (- 1) c_6 res ) (* (- 1) c_7 ) (* (- 1) c_7 x ) (* (- 1) c_8 y ) (* (- 1) c_9 ) (* (- 1) c_9 ytmp ) ) 0) (>= (* (- 1) ytmp ) 0) (>= (+ (* (- 1) 1) (* (- 1) ytmp ) ) 0) (>= (+ (* 1 c_15 ) (* 1 c_16 res ) (* 1 c_17 x ) (* 1 c_18 y ) (* 1 c_19 ytmp ) ) 0) (>= (+ (* 1 c_20 ) (* 1 c_21 res ) (* 1 c_22 x ) (* 1 c_23 y ) (* 1 c_24 ytmp ) ) 0) ) (>= (+ (* 1 c_15 ) (* 1 c_16 res ) (* 1 c_17 ) (* 1 c_17 x ) (* 1 c_18 y ) (* 1 c_19 ) (* 1 c_19 ytmp ) ) 0) )))
(assert (forall ((res Real) (ytmp Real) (x Real) (y Real) ) (=> (and (>= (+ (* (- 1) 1) (* (- 1) c_5 ) (* (- 1) c_6 res ) (* (- 1) c_7 ) (* (- 1) c_7 x ) (* (- 1) c_8 y ) (* (- 1) c_9 ) (* (- 1) c_9 ytmp ) ) 0) (>= (* (- 1) ytmp ) 0) (>= (+ (* (- 1) 1) (* (- 1) ytmp ) ) 0) (>= (+ (* 1 c_15 ) (* 1 c_16 res ) (* 1 c_17 x ) (* 1 c_18 y ) (* 1 c_19 ytmp ) ) 0) (>= (+ (* 1 c_20 ) (* 1 c_21 res ) (* 1 c_22 x ) (* 1 c_23 y ) (* 1 c_24 ytmp ) ) 0) ) (>= (+ (* 1 c_20 ) (* 1 c_21 res ) (* 1 c_22 ) (* 1 c_22 x ) (* 1 c_23 y ) (* 1 c_24 ) (* 1 c_24 ytmp ) ) 0) )))
(assert (forall ((res Real) (ytmp Real) (x Real) (y Real) ) (=> (and (>= (+ (* (- 1) 1) (* (- 1) c_10 ) (* (- 1) c_11 res ) (* (- 1) c_12 ) (* (- 1) c_12 x ) (* (- 1) c_13 y ) (* (- 1) c_14 ) (* (- 1) c_14 ytmp ) ) 0) (>= (* (- 1) ytmp ) 0) (>= (+ (* (- 1) 1) (* (- 1) ytmp ) ) 0) (>= (+ (* 1 c_15 ) (* 1 c_16 res ) (* 1 c_17 x ) (* 1 c_18 y ) (* 1 c_19 ytmp ) ) 0) (>= (+ (* 1 c_20 ) (* 1 c_21 res ) (* 1 c_22 x ) (* 1 c_23 y ) (* 1 c_24 ytmp ) ) 0) ) (>= (+ (* 1 c_15 ) (* 1 c_16 res ) (* 1 c_17 ) (* 1 c_17 x ) (* 1 c_18 y ) (* 1 c_19 ) (* 1 c_19 ytmp ) ) 0) )))
(assert (forall ((res Real) (ytmp Real) (x Real) (y Real) ) (=> (and (>= (+ (* (- 1) 1) (* (- 1) c_10 ) (* (- 1) c_11 res ) (* (- 1) c_12 ) (* (- 1) c_12 x ) (* (- 1) c_13 y ) (* (- 1) c_14 ) (* (- 1) c_14 ytmp ) ) 0) (>= (* (- 1) ytmp ) 0) (>= (+ (* (- 1) 1) (* (- 1) ytmp ) ) 0) (>= (+ (* 1 c_15 ) (* 1 c_16 res ) (* 1 c_17 x ) (* 1 c_18 y ) (* 1 c_19 ytmp ) ) 0) (>= (+ (* 1 c_20 ) (* 1 c_21 res ) (* 1 c_22 x ) (* 1 c_23 y ) (* 1 c_24 ytmp ) ) 0) ) (>= (+ (* 1 c_20 ) (* 1 c_21 res ) (* 1 c_22 ) (* 1 c_22 x ) (* 1 c_23 y ) (* 1 c_24 ) (* 1 c_24 ytmp ) ) 0) )))
(assert (forall ((res Real) (ytmp Real) (x Real) (y Real) ) (=> (and (>= (+ (* (- 1) 1) (* (- 1) c_5 ) (* (- 1) c_6 res ) (* 1 c_7 ) (* (- 1) c_7 x ) (* (- 1) c_8 y ) (* 1 c_9 ) (* (- 1) c_9 ytmp ) ) 0) (>= (+ (* (- 1) 1) (* 1 ytmp ) ) 0) (>= (+ (* 1 c_5 ) (* 1 c_6 res ) (* 1 c_7 x ) (* 1 c_8 y ) (* 1 c_9 ytmp ) ) 0) (>= (+ (* 1 c_10 ) (* 1 c_11 res ) (* 1 c_12 x ) (* 1 c_13 y ) (* 1 c_14 ytmp ) ) 0) ) (>= (+ (* 1 c_15 ) (* 1 c_16 res ) (* (- 1) c_17 ) (* 1 c_17 x ) (* 1 c_18 y ) (* (- 1) c_19 ) (* 1 c_19 ytmp ) ) 0) )))
(assert (forall ((res Real) (ytmp Real) (x Real) (y Real) ) (=> (and (>= (+ (* (- 1) 1) (* (- 1) c_5 ) (* (- 1) c_6 res ) (* 1 c_7 ) (* (- 1) c_7 x ) (* (- 1) c_8 y ) (* 1 c_9 ) (* (- 1) c_9 ytmp ) ) 0) (>= (+ (* (- 1) 1) (* 1 ytmp ) ) 0) (>= (+ (* 1 c_5 ) (* 1 c_6 res ) (* 1 c_7 x ) (* 1 c_8 y ) (* 1 c_9 ytmp ) ) 0) (>= (+ (* 1 c_10 ) (* 1 c_11 res ) (* 1 c_12 x ) (* 1 c_13 y ) (* 1 c_14 ytmp ) ) 0) ) (>= (+ (* 1 c_20 ) (* 1 c_21 res ) (* (- 1) c_22 ) (* 1 c_22 x ) (* 1 c_23 y ) (* (- 1) c_24 ) (* 1 c_24 ytmp ) ) 0) )))
(assert (forall ((res Real) (ytmp Real) (x Real) (y Real) ) (=> (and (>= (+ (* (- 1) 1) (* (- 1) c_10 ) (* (- 1) c_11 res ) (* 1 c_12 ) (* (- 1) c_12 x ) (* (- 1) c_13 y ) (* 1 c_14 ) (* (- 1) c_14 ytmp ) ) 0) (>= (+ (* (- 1) 1) (* 1 ytmp ) ) 0) (>= (+ (* 1 c_5 ) (* 1 c_6 res ) (* 1 c_7 x ) (* 1 c_8 y ) (* 1 c_9 ytmp ) ) 0) (>= (+ (* 1 c_10 ) (* 1 c_11 res ) (* 1 c_12 x ) (* 1 c_13 y ) (* 1 c_14 ytmp ) ) 0) ) (>= (+ (* 1 c_15 ) (* 1 c_16 res ) (* (- 1) c_17 ) (* 1 c_17 x ) (* 1 c_18 y ) (* (- 1) c_19 ) (* 1 c_19 ytmp ) ) 0) )))
(assert (forall ((res Real) (ytmp Real) (x Real) (y Real) ) (=> (and (>= (+ (* (- 1) 1) (* (- 1) c_10 ) (* (- 1) c_11 res ) (* 1 c_12 ) (* (- 1) c_12 x ) (* (- 1) c_13 y ) (* 1 c_14 ) (* (- 1) c_14 ytmp ) ) 0) (>= (+ (* (- 1) 1) (* 1 ytmp ) ) 0) (>= (+ (* 1 c_5 ) (* 1 c_6 res ) (* 1 c_7 x ) (* 1 c_8 y ) (* 1 c_9 ytmp ) ) 0) (>= (+ (* 1 c_10 ) (* 1 c_11 res ) (* 1 c_12 x ) (* 1 c_13 y ) (* 1 c_14 ytmp ) ) 0) ) (>= (+ (* 1 c_20 ) (* 1 c_21 res ) (* (- 1) c_22 ) (* 1 c_22 x ) (* 1 c_23 y ) (* (- 1) c_24 ) (* 1 c_24 ytmp ) ) 0) )))
(assert (forall ((res Real) (ytmp Real) (x Real) (y Real) ) (=> (and (>= (+ (* (- 1) 1) (* (- 1) c_5 ) (* (- 1) c_6 res ) (* 1 c_7 ) (* (- 1) c_7 x ) (* (- 1) c_8 y ) (* 1 c_9 ) (* (- 1) c_9 ytmp ) ) 0) (>= (+ (* (- 1) 1) (* 1 ytmp ) ) 0) (>= (+ (* 1 c_15 ) (* 1 c_16 res ) (* 1 c_17 x ) (* 1 c_18 y ) (* 1 c_19 ytmp ) ) 0) (>= (+ (* 1 c_20 ) (* 1 c_21 res ) (* 1 c_22 x ) (* 1 c_23 y ) (* 1 c_24 ytmp ) ) 0) ) (>= (+ (* 1 c_15 ) (* 1 c_16 res ) (* (- 1) c_17 ) (* 1 c_17 x ) (* 1 c_18 y ) (* (- 1) c_19 ) (* 1 c_19 ytmp ) ) 0) )))
(assert (forall ((res Real) (ytmp Real) (x Real) (y Real) ) (=> (and (>= (+ (* (- 1) 1) (* (- 1) c_5 ) (* (- 1) c_6 res ) (* 1 c_7 ) (* (- 1) c_7 x ) (* (- 1) c_8 y ) (* 1 c_9 ) (* (- 1) c_9 ytmp ) ) 0) (>= (+ (* (- 1) 1) (* 1 ytmp ) ) 0) (>= (+ (* 1 c_15 ) (* 1 c_16 res ) (* 1 c_17 x ) (* 1 c_18 y ) (* 1 c_19 ytmp ) ) 0) (>= (+ (* 1 c_20 ) (* 1 c_21 res ) (* 1 c_22 x ) (* 1 c_23 y ) (* 1 c_24 ytmp ) ) 0) ) (>= (+ (* 1 c_20 ) (* 1 c_21 res ) (* (- 1) c_22 ) (* 1 c_22 x ) (* 1 c_23 y ) (* (- 1) c_24 ) (* 1 c_24 ytmp ) ) 0) )))
(assert (forall ((res Real) (ytmp Real) (x Real) (y Real) ) (=> (and (>= (+ (* (- 1) 1) (* (- 1) c_10 ) (* (- 1) c_11 res ) (* 1 c_12 ) (* (- 1) c_12 x ) (* (- 1) c_13 y ) (* 1 c_14 ) (* (- 1) c_14 ytmp ) ) 0) (>= (+ (* (- 1) 1) (* 1 ytmp ) ) 0) (>= (+ (* 1 c_15 ) (* 1 c_16 res ) (* 1 c_17 x ) (* 1 c_18 y ) (* 1 c_19 ytmp ) ) 0) (>= (+ (* 1 c_20 ) (* 1 c_21 res ) (* 1 c_22 x ) (* 1 c_23 y ) (* 1 c_24 ytmp ) ) 0) ) (>= (+ (* 1 c_15 ) (* 1 c_16 res ) (* (- 1) c_17 ) (* 1 c_17 x ) (* 1 c_18 y ) (* (- 1) c_19 ) (* 1 c_19 ytmp ) ) 0) )))
(assert (forall ((res Real) (ytmp Real) (x Real) (y Real) ) (=> (and (>= (+ (* (- 1) 1) (* (- 1) c_10 ) (* (- 1) c_11 res ) (* 1 c_12 ) (* (- 1) c_12 x ) (* (- 1) c_13 y ) (* 1 c_14 ) (* (- 1) c_14 ytmp ) ) 0) (>= (+ (* (- 1) 1) (* 1 ytmp ) ) 0) (>= (+ (* 1 c_15 ) (* 1 c_16 res ) (* 1 c_17 x ) (* 1 c_18 y ) (* 1 c_19 ytmp ) ) 0) (>= (+ (* 1 c_20 ) (* 1 c_21 res ) (* 1 c_22 x ) (* 1 c_23 y ) (* 1 c_24 ytmp ) ) 0) ) (>= (+ (* 1 c_20 ) (* 1 c_21 res ) (* (- 1) c_22 ) (* 1 c_22 x ) (* 1 c_23 y ) (* (- 1) c_24 ) (* 1 c_24 ytmp ) ) 0) )))
(assert (forall ((res Real) (ytmp Real) (x Real) (y Real) ) (=> (and (>= (+ (* (- 1) 1) (* (- 1) c_5 ) (* (- 1) c_6 res ) (* (- 1) c_7 ) (* (- 1) c_7 x ) (* (- 1) c_8 y ) (* (- 1) c_9 ) (* (- 1) c_9 ytmp ) ) 0) (>= (* (- 1) ytmp ) 0) (>= (+ (* (- 1) 1) (* 1 ytmp ) ) 0) (>= (+ (* 1 c_5 ) (* 1 c_6 res ) (* 1 c_7 x ) (* 1 c_8 y ) (* 1 c_9 ytmp ) ) 0) (>= (+ (* 1 c_10 ) (* 1 c_11 res ) (* 1 c_12 x ) (* 1 c_13 y ) (* 1 c_14 ytmp ) ) 0) ) (>= (+ (* 1 c_15 ) (* 1 c_16 res ) (* 1 c_17 ) (* 1 c_17 x ) (* 1 c_18 y ) (* 1 c_19 ) (* 1 c_19 ytmp ) ) 0) )))
(assert (forall ((res Real) (ytmp Real) (x Real) (y Real) ) (=> (and (>= (+ (* (- 1) 1) (* (- 1) c_5 ) (* (- 1) c_6 res ) (* (- 1) c_7 ) (* (- 1) c_7 x ) (* (- 1) c_8 y ) (* (- 1) c_9 ) (* (- 1) c_9 ytmp ) ) 0) (>= (* (- 1) ytmp ) 0) (>= (+ (* (- 1) 1) (* 1 ytmp ) ) 0) (>= (+ (* 1 c_5 ) (* 1 c_6 res ) (* 1 c_7 x ) (* 1 c_8 y ) (* 1 c_9 ytmp ) ) 0) (>= (+ (* 1 c_10 ) (* 1 c_11 res ) (* 1 c_12 x ) (* 1 c_13 y ) (* 1 c_14 ytmp ) ) 0) ) (>= (+ (* 1 c_20 ) (* 1 c_21 res ) (* 1 c_22 ) (* 1 c_22 x ) (* 1 c_23 y ) (* 1 c_24 ) (* 1 c_24 ytmp ) ) 0) )))
(assert (forall ((res Real) (ytmp Real) (x Real) (y Real) ) (=> (and (>= (+ (* (- 1) 1) (* (- 1) c_10 ) (* (- 1) c_11 res ) (* (- 1) c_12 ) (* (- 1) c_12 x ) (* (- 1) c_13 y ) (* (- 1) c_14 ) (* (- 1) c_14 ytmp ) ) 0) (>= (* (- 1) ytmp ) 0) (>= (+ (* (- 1) 1) (* 1 ytmp ) ) 0) (>= (+ (* 1 c_5 ) (* 1 c_6 res ) (* 1 c_7 x ) (* 1 c_8 y ) (* 1 c_9 ytmp ) ) 0) (>= (+ (* 1 c_10 ) (* 1 c_11 res ) (* 1 c_12 x ) (* 1 c_13 y ) (* 1 c_14 ytmp ) ) 0) ) (>= (+ (* 1 c_15 ) (* 1 c_16 res ) (* 1 c_17 ) (* 1 c_17 x ) (* 1 c_18 y ) (* 1 c_19 ) (* 1 c_19 ytmp ) ) 0) )))
(assert (forall ((res Real) (ytmp Real) (x Real) (y Real) ) (=> (and (>= (+ (* (- 1) 1) (* (- 1) c_10 ) (* (- 1) c_11 res ) (* (- 1) c_12 ) (* (- 1) c_12 x ) (* (- 1) c_13 y ) (* (- 1) c_14 ) (* (- 1) c_14 ytmp ) ) 0) (>= (* (- 1) ytmp ) 0) (>= (+ (* (- 1) 1) (* 1 ytmp ) ) 0) (>= (+ (* 1 c_5 ) (* 1 c_6 res ) (* 1 c_7 x ) (* 1 c_8 y ) (* 1 c_9 ytmp ) ) 0) (>= (+ (* 1 c_10 ) (* 1 c_11 res ) (* 1 c_12 x ) (* 1 c_13 y ) (* 1 c_14 ytmp ) ) 0) ) (>= (+ (* 1 c_20 ) (* 1 c_21 res ) (* 1 c_22 ) (* 1 c_22 x ) (* 1 c_23 y ) (* 1 c_24 ) (* 1 c_24 ytmp ) ) 0) )))
(assert (forall ((res Real) (ytmp Real) (x Real) (y Real) ) (=> (and (>= (+ (* (- 1) 1) (* (- 1) c_5 ) (* (- 1) c_6 res ) (* (- 1) c_7 ) (* (- 1) c_7 x ) (* (- 1) c_8 y ) (* (- 1) c_9 ) (* (- 1) c_9 ytmp ) ) 0) (>= (* (- 1) ytmp ) 0) (>= (+ (* (- 1) 1) (* 1 ytmp ) ) 0) (>= (+ (* 1 c_15 ) (* 1 c_16 res ) (* 1 c_17 x ) (* 1 c_18 y ) (* 1 c_19 ytmp ) ) 0) (>= (+ (* 1 c_20 ) (* 1 c_21 res ) (* 1 c_22 x ) (* 1 c_23 y ) (* 1 c_24 ytmp ) ) 0) ) (>= (+ (* 1 c_15 ) (* 1 c_16 res ) (* 1 c_17 ) (* 1 c_17 x ) (* 1 c_18 y ) (* 1 c_19 ) (* 1 c_19 ytmp ) ) 0) )))
(assert (forall ((res Real) (ytmp Real) (x Real) (y Real) ) (=> (and (>= (+ (* (- 1) 1) (* (- 1) c_5 ) (* (- 1) c_6 res ) (* (- 1) c_7 ) (* (- 1) c_7 x ) (* (- 1) c_8 y ) (* (- 1) c_9 ) (* (- 1) c_9 ytmp ) ) 0) (>= (* (- 1) ytmp ) 0) (>= (+ (* (- 1) 1) (* 1 ytmp ) ) 0) (>= (+ (* 1 c_15 ) (* 1 c_16 res ) (* 1 c_17 x ) (* 1 c_18 y ) (* 1 c_19 ytmp ) ) 0) (>= (+ (* 1 c_20 ) (* 1 c_21 res ) (* 1 c_22 x ) (* 1 c_23 y ) (* 1 c_24 ytmp ) ) 0) ) (>= (+ (* 1 c_20 ) (* 1 c_21 res ) (* 1 c_22 ) (* 1 c_22 x ) (* 1 c_23 y ) (* 1 c_24 ) (* 1 c_24 ytmp ) ) 0) )))
(assert (forall ((res Real) (ytmp Real) (x Real) (y Real) ) (=> (and (>= (+ (* (- 1) 1) (* (- 1) c_10 ) (* (- 1) c_11 res ) (* (- 1) c_12 ) (* (- 1) c_12 x ) (* (- 1) c_13 y ) (* (- 1) c_14 ) (* (- 1) c_14 ytmp ) ) 0) (>= (* (- 1) ytmp ) 0) (>= (+ (* (- 1) 1) (* 1 ytmp ) ) 0) (>= (+ (* 1 c_15 ) (* 1 c_16 res ) (* 1 c_17 x ) (* 1 c_18 y ) (* 1 c_19 ytmp ) ) 0) (>= (+ (* 1 c_20 ) (* 1 c_21 res ) (* 1 c_22 x ) (* 1 c_23 y ) (* 1 c_24 ytmp ) ) 0) ) (>= (+ (* 1 c_15 ) (* 1 c_16 res ) (* 1 c_17 ) (* 1 c_17 x ) (* 1 c_18 y ) (* 1 c_19 ) (* 1 c_19 ytmp ) ) 0) )))
(assert (forall ((res Real) (ytmp Real) (x Real) (y Real) ) (=> (and (>= (+ (* (- 1) 1) (* (- 1) c_10 ) (* (- 1) c_11 res ) (* (- 1) c_12 ) (* (- 1) c_12 x ) (* (- 1) c_13 y ) (* (- 1) c_14 ) (* (- 1) c_14 ytmp ) ) 0) (>= (* (- 1) ytmp ) 0) (>= (+ (* (- 1) 1) (* 1 ytmp ) ) 0) (>= (+ (* 1 c_15 ) (* 1 c_16 res ) (* 1 c_17 x ) (* 1 c_18 y ) (* 1 c_19 ytmp ) ) 0) (>= (+ (* 1 c_20 ) (* 1 c_21 res ) (* 1 c_22 x ) (* 1 c_23 y ) (* 1 c_24 ytmp ) ) 0) ) (>= (+ (* 1 c_20 ) (* 1 c_21 res ) (* 1 c_22 ) (* 1 c_22 x ) (* 1 c_23 y ) (* 1 c_24 ) (* 1 c_24 ytmp ) ) 0) )))
(assert (forall ((res Real) (ytmp Real) (x Real) (y Real) ) (=> (and (>= (+ (* (- 1) 1) (* (- 1) c_25 ) (* (- 1) c_26 ) (* (- 1) c_26 res ) (* (- 1) c_27 x ) (* (- 1) c_28 y ) (* (- 1) c_29 ytmp ) ) 0) (>= (* 1 ytmp ) 0) (>= (* (- 1) ytmp ) 0) (>= (+ (* 1 c_5 ) (* 1 c_6 res ) (* 1 c_7 x ) (* 1 c_8 y ) (* 1 c_9 ytmp ) ) 0) (>= (+ (* 1 c_10 ) (* 1 c_11 res ) (* 1 c_12 x ) (* 1 c_13 y ) (* 1 c_14 ytmp ) ) 0) ) (>= (+ (* 1 c_35 ) (* 1 c_36 ) (* 1 c_36 res ) (* 1 c_37 x ) (* 1 c_38 y ) (* 1 c_39 ytmp ) ) 0) )))
(assert (forall ((res Real) (ytmp Real) (x Real) (y Real) ) (=> (and (>= (+ (* (- 1) 1) (* (- 1) c_25 ) (* (- 1) c_26 ) (* (- 1) c_26 res ) (* (- 1) c_27 x ) (* (- 1) c_28 y ) (* (- 1) c_29 ytmp ) ) 0) (>= (* 1 ytmp ) 0) (>= (* (- 1) ytmp ) 0) (>= (+ (* 1 c_5 ) (* 1 c_6 res ) (* 1 c_7 x ) (* 1 c_8 y ) (* 1 c_9 ytmp ) ) 0) (>= (+ (* 1 c_10 ) (* 1 c_11 res ) (* 1 c_12 x ) (* 1 c_13 y ) (* 1 c_14 ytmp ) ) 0) ) (>= (+ (* 1 c_40 ) (* 1 c_41 ) (* 1 c_41 res ) (* 1 c_42 x ) (* 1 c_43 y ) (* 1 c_44 ytmp ) ) 0) )))
(assert (forall ((res Real) (ytmp Real) (x Real) (y Real) ) (=> (and (>= (+ (* (- 1) 1) (* (- 1) c_30 ) (* (- 1) c_31 ) (* (- 1) c_31 res ) (* (- 1) c_32 x ) (* (- 1) c_33 y ) (* (- 1) c_34 ytmp ) ) 0) (>= (* 1 ytmp ) 0) (>= (* (- 1) ytmp ) 0) (>= (+ (* 1 c_5 ) (* 1 c_6 res ) (* 1 c_7 x ) (* 1 c_8 y ) (* 1 c_9 ytmp ) ) 0) (>= (+ (* 1 c_10 ) (* 1 c_11 res ) (* 1 c_12 x ) (* 1 c_13 y ) (* 1 c_14 ytmp ) ) 0) ) (>= (+ (* 1 c_35 ) (* 1 c_36 ) (* 1 c_36 res ) (* 1 c_37 x ) (* 1 c_38 y ) (* 1 c_39 ytmp ) ) 0) )))
(assert (forall ((res Real) (ytmp Real) (x Real) (y Real) ) (=> (and (>= (+ (* (- 1) 1) (* (- 1) c_30 ) (* (- 1) c_31 ) (* (- 1) c_31 res ) (* (- 1) c_32 x ) (* (- 1) c_33 y ) (* (- 1) c_34 ytmp ) ) 0) (>= (* 1 ytmp ) 0) (>= (* (- 1) ytmp ) 0) (>= (+ (* 1 c_5 ) (* 1 c_6 res ) (* 1 c_7 x ) (* 1 c_8 y ) (* 1 c_9 ytmp ) ) 0) (>= (+ (* 1 c_10 ) (* 1 c_11 res ) (* 1 c_12 x ) (* 1 c_13 y ) (* 1 c_14 ytmp ) ) 0) ) (>= (+ (* 1 c_40 ) (* 1 c_41 ) (* 1 c_41 res ) (* 1 c_42 x ) (* 1 c_43 y ) (* 1 c_44 ytmp ) ) 0) )))
(assert (forall ((res Real) (ytmp Real) (x Real) (y Real) ) (=> (and (>= (+ (* (- 1) 1) (* (- 1) c_25 ) (* (- 1) c_26 ) (* (- 1) c_26 res ) (* (- 1) c_27 x ) (* (- 1) c_28 y ) (* (- 1) c_29 ytmp ) ) 0) (>= (* 1 ytmp ) 0) (>= (* (- 1) ytmp ) 0) (>= (+ (* 1 c_15 ) (* 1 c_16 res ) (* 1 c_17 x ) (* 1 c_18 y ) (* 1 c_19 ytmp ) ) 0) (>= (+ (* 1 c_20 ) (* 1 c_21 res ) (* 1 c_22 x ) (* 1 c_23 y ) (* 1 c_24 ytmp ) ) 0) ) (>= (+ (* 1 c_35 ) (* 1 c_36 ) (* 1 c_36 res ) (* 1 c_37 x ) (* 1 c_38 y ) (* 1 c_39 ytmp ) ) 0) )))
(assert (forall ((res Real) (ytmp Real) (x Real) (y Real) ) (=> (and (>= (+ (* (- 1) 1) (* (- 1) c_25 ) (* (- 1) c_26 ) (* (- 1) c_26 res ) (* (- 1) c_27 x ) (* (- 1) c_28 y ) (* (- 1) c_29 ytmp ) ) 0) (>= (* 1 ytmp ) 0) (>= (* (- 1) ytmp ) 0) (>= (+ (* 1 c_15 ) (* 1 c_16 res ) (* 1 c_17 x ) (* 1 c_18 y ) (* 1 c_19 ytmp ) ) 0) (>= (+ (* 1 c_20 ) (* 1 c_21 res ) (* 1 c_22 x ) (* 1 c_23 y ) (* 1 c_24 ytmp ) ) 0) ) (>= (+ (* 1 c_40 ) (* 1 c_41 ) (* 1 c_41 res ) (* 1 c_42 x ) (* 1 c_43 y ) (* 1 c_44 ytmp ) ) 0) )))
(assert (forall ((res Real) (ytmp Real) (x Real) (y Real) ) (=> (and (>= (+ (* (- 1) 1) (* (- 1) c_30 ) (* (- 1) c_31 ) (* (- 1) c_31 res ) (* (- 1) c_32 x ) (* (- 1) c_33 y ) (* (- 1) c_34 ytmp ) ) 0) (>= (* 1 ytmp ) 0) (>= (* (- 1) ytmp ) 0) (>= (+ (* 1 c_15 ) (* 1 c_16 res ) (* 1 c_17 x ) (* 1 c_18 y ) (* 1 c_19 ytmp ) ) 0) (>= (+ (* 1 c_20 ) (* 1 c_21 res ) (* 1 c_22 x ) (* 1 c_23 y ) (* 1 c_24 ytmp ) ) 0) ) (>= (+ (* 1 c_35 ) (* 1 c_36 ) (* 1 c_36 res ) (* 1 c_37 x ) (* 1 c_38 y ) (* 1 c_39 ytmp ) ) 0) )))
(assert (forall ((res Real) (ytmp Real) (x Real) (y Real) ) (=> (and (>= (+ (* (- 1) 1) (* (- 1) c_30 ) (* (- 1) c_31 ) (* (- 1) c_31 res ) (* (- 1) c_32 x ) (* (- 1) c_33 y ) (* (- 1) c_34 ytmp ) ) 0) (>= (* 1 ytmp ) 0) (>= (* (- 1) ytmp ) 0) (>= (+ (* 1 c_15 ) (* 1 c_16 res ) (* 1 c_17 x ) (* 1 c_18 y ) (* 1 c_19 ytmp ) ) 0) (>= (+ (* 1 c_20 ) (* 1 c_21 res ) (* 1 c_22 x ) (* 1 c_23 y ) (* 1 c_24 ytmp ) ) 0) ) (>= (+ (* 1 c_40 ) (* 1 c_41 ) (* 1 c_41 res ) (* 1 c_42 x ) (* 1 c_43 y ) (* 1 c_44 ytmp ) ) 0) )))
(assert (forall ((res Real) (ytmp Real) (x Real) (y Real) ) (=> (and (>= (+ (* (- 1) 1) (* (- 1) c_5 ) (* (- 1) c_6 res ) (* (- 1) c_7 x ) (* (- 1) c_8 y ) (* (- 1) c_9 y ) ) 0) (>= (+ (* 1 x ) (* (- 1) y ) ) 0) (>= (+ (* (- 1) 1) (* 1 y ) ) 0) (>= (+ (* 1 c_25 ) (* 1 c_26 res ) (* 1 c_27 x ) (* 1 c_28 y ) (* 1 c_29 ytmp ) ) 0) (>= (+ (* 1 c_30 ) (* 1 c_31 res ) (* 1 c_32 x ) (* 1 c_33 y ) (* 1 c_34 ytmp ) ) 0) ) (>= (+ (* 1 c_15 ) (* 1 c_16 res ) (* 1 c_17 x ) (* 1 c_18 y ) (* 1 c_19 y ) ) 0) )))
(assert (forall ((res Real) (ytmp Real) (x Real) (y Real) ) (=> (and (>= (+ (* (- 1) 1) (* (- 1) c_5 ) (* (- 1) c_6 res ) (* (- 1) c_7 x ) (* (- 1) c_8 y ) (* (- 1) c_9 y ) ) 0) (>= (+ (* 1 x ) (* (- 1) y ) ) 0) (>= (+ (* (- 1) 1) (* 1 y ) ) 0) (>= (+ (* 1 c_25 ) (* 1 c_26 res ) (* 1 c_27 x ) (* 1 c_28 y ) (* 1 c_29 ytmp ) ) 0) (>= (+ (* 1 c_30 ) (* 1 c_31 res ) (* 1 c_32 x ) (* 1 c_33 y ) (* 1 c_34 ytmp ) ) 0) ) (>= (+ (* 1 c_20 ) (* 1 c_21 res ) (* 1 c_22 x ) (* 1 c_23 y ) (* 1 c_24 y ) ) 0) )))
(assert (forall ((res Real) (ytmp Real) (x Real) (y Real) ) (=> (and (>= (+ (* (- 1) 1) (* (- 1) c_10 ) (* (- 1) c_11 res ) (* (- 1) c_12 x ) (* (- 1) c_13 y ) (* (- 1) c_14 y ) ) 0) (>= (+ (* 1 x ) (* (- 1) y ) ) 0) (>= (+ (* (- 1) 1) (* 1 y ) ) 0) (>= (+ (* 1 c_25 ) (* 1 c_26 res ) (* 1 c_27 x ) (* 1 c_28 y ) (* 1 c_29 ytmp ) ) 0) (>= (+ (* 1 c_30 ) (* 1 c_31 res ) (* 1 c_32 x ) (* 1 c_33 y ) (* 1 c_34 ytmp ) ) 0) ) (>= (+ (* 1 c_15 ) (* 1 c_16 res ) (* 1 c_17 x ) (* 1 c_18 y ) (* 1 c_19 y ) ) 0) )))
(assert (forall ((res Real) (ytmp Real) (x Real) (y Real) ) (=> (and (>= (+ (* (- 1) 1) (* (- 1) c_10 ) (* (- 1) c_11 res ) (* (- 1) c_12 x ) (* (- 1) c_13 y ) (* (- 1) c_14 y ) ) 0) (>= (+ (* 1 x ) (* (- 1) y ) ) 0) (>= (+ (* (- 1) 1) (* 1 y ) ) 0) (>= (+ (* 1 c_25 ) (* 1 c_26 res ) (* 1 c_27 x ) (* 1 c_28 y ) (* 1 c_29 ytmp ) ) 0) (>= (+ (* 1 c_30 ) (* 1 c_31 res ) (* 1 c_32 x ) (* 1 c_33 y ) (* 1 c_34 ytmp ) ) 0) ) (>= (+ (* 1 c_20 ) (* 1 c_21 res ) (* 1 c_22 x ) (* 1 c_23 y ) (* 1 c_24 y ) ) 0) )))
(assert (forall ((res Real) (ytmp Real) (x Real) (y Real) ) (=> (and (>= (+ (* (- 1) 1) (* (- 1) c_5 ) (* (- 1) c_6 res ) (* (- 1) c_7 x ) (* (- 1) c_8 y ) (* (- 1) c_9 y ) ) 0) (>= (+ (* 1 x ) (* (- 1) y ) ) 0) (>= (+ (* (- 1) 1) (* 1 y ) ) 0) (>= (+ (* 1 c_35 ) (* 1 c_36 res ) (* 1 c_37 x ) (* 1 c_38 y ) (* 1 c_39 ytmp ) ) 0) (>= (+ (* 1 c_40 ) (* 1 c_41 res ) (* 1 c_42 x ) (* 1 c_43 y ) (* 1 c_44 ytmp ) ) 0) ) (>= (+ (* 1 c_15 ) (* 1 c_16 res ) (* 1 c_17 x ) (* 1 c_18 y ) (* 1 c_19 y ) ) 0) )))
(assert (forall ((res Real) (ytmp Real) (x Real) (y Real) ) (=> (and (>= (+ (* (- 1) 1) (* (- 1) c_5 ) (* (- 1) c_6 res ) (* (- 1) c_7 x ) (* (- 1) c_8 y ) (* (- 1) c_9 y ) ) 0) (>= (+ (* 1 x ) (* (- 1) y ) ) 0) (>= (+ (* (- 1) 1) (* 1 y ) ) 0) (>= (+ (* 1 c_35 ) (* 1 c_36 res ) (* 1 c_37 x ) (* 1 c_38 y ) (* 1 c_39 ytmp ) ) 0) (>= (+ (* 1 c_40 ) (* 1 c_41 res ) (* 1 c_42 x ) (* 1 c_43 y ) (* 1 c_44 ytmp ) ) 0) ) (>= (+ (* 1 c_20 ) (* 1 c_21 res ) (* 1 c_22 x ) (* 1 c_23 y ) (* 1 c_24 y ) ) 0) )))
(assert (forall ((res Real) (ytmp Real) (x Real) (y Real) ) (=> (and (>= (+ (* (- 1) 1) (* (- 1) c_10 ) (* (- 1) c_11 res ) (* (- 1) c_12 x ) (* (- 1) c_13 y ) (* (- 1) c_14 y ) ) 0) (>= (+ (* 1 x ) (* (- 1) y ) ) 0) (>= (+ (* (- 1) 1) (* 1 y ) ) 0) (>= (+ (* 1 c_35 ) (* 1 c_36 res ) (* 1 c_37 x ) (* 1 c_38 y ) (* 1 c_39 ytmp ) ) 0) (>= (+ (* 1 c_40 ) (* 1 c_41 res ) (* 1 c_42 x ) (* 1 c_43 y ) (* 1 c_44 ytmp ) ) 0) ) (>= (+ (* 1 c_15 ) (* 1 c_16 res ) (* 1 c_17 x ) (* 1 c_18 y ) (* 1 c_19 y ) ) 0) )))
(assert (forall ((res Real) (ytmp Real) (x Real) (y Real) ) (=> (and (>= (+ (* (- 1) 1) (* (- 1) c_10 ) (* (- 1) c_11 res ) (* (- 1) c_12 x ) (* (- 1) c_13 y ) (* (- 1) c_14 y ) ) 0) (>= (+ (* 1 x ) (* (- 1) y ) ) 0) (>= (+ (* (- 1) 1) (* 1 y ) ) 0) (>= (+ (* 1 c_35 ) (* 1 c_36 res ) (* 1 c_37 x ) (* 1 c_38 y ) (* 1 c_39 ytmp ) ) 0) (>= (+ (* 1 c_40 ) (* 1 c_41 res ) (* 1 c_42 x ) (* 1 c_43 y ) (* 1 c_44 ytmp ) ) 0) ) (>= (+ (* 1 c_20 ) (* 1 c_21 res ) (* 1 c_22 x ) (* 1 c_23 y ) (* 1 c_24 y ) ) 0) )))
(assert (forall ((res Real) (ytmp Real) (x Real) (y Real) ) (=> (and (>= (+ (* (- 1) 1) (* (- 1) x ) (* 1 y ) ) 0) (>= (+ (* 1 c_25 ) (* 1 c_26 res ) (* 1 c_27 x ) (* 1 c_28 y ) (* 1 c_29 ytmp ) ) 0) (>= (+ (* 1 c_30 ) (* 1 c_31 res ) (* 1 c_32 x ) (* 1 c_33 y ) (* 1 c_34 ytmp ) ) 0) ) (>= (* 1 c_0 ) 0) )))
(assert (forall ((res Real) (ytmp Real) (x Real) (y Real) ) (=> (and (>= (+ (* (- 1) 1) (* (- 1) x ) (* 1 y ) ) 0) (>= (+ (* 1 c_35 ) (* 1 c_36 res ) (* 1 c_37 x ) (* 1 c_38 y ) (* 1 c_39 ytmp ) ) 0) (>= (+ (* 1 c_40 ) (* 1 c_41 res ) (* 1 c_42 x ) (* 1 c_43 y ) (* 1 c_44 ytmp ) ) 0) ) (>= (* 1 c_0 ) 0) )))
(assert (forall ((res Real) (ytmp Real) (x Real) (y Real) ) (=> (and (>= (* (- 1) y ) 0) (>= (+ (* 1 c_25 ) (* 1 c_26 res ) (* 1 c_27 x ) (* 1 c_28 y ) (* 1 c_29 ytmp ) ) 0) (>= (+ (* 1 c_30 ) (* 1 c_31 res ) (* 1 c_32 x ) (* 1 c_33 y ) (* 1 c_34 ytmp ) ) 0) ) (>= (* 1 c_0 ) 0) )))
(assert (forall ((res Real) (ytmp Real) (x Real) (y Real) ) (=> (and (>= (* (- 1) y ) 0) (>= (+ (* 1 c_35 ) (* 1 c_36 res ) (* 1 c_37 x ) (* 1 c_38 y ) (* 1 c_39 ytmp ) ) 0) (>= (+ (* 1 c_40 ) (* 1 c_41 res ) (* 1 c_42 x ) (* 1 c_43 y ) (* 1 c_44 ytmp ) ) 0) ) (>= (* 1 c_0 ) 0) )))
(check-sat)
(get-model)

